SECTION Graph
Nodes 16
Edges 15
E 1 9 295
E 2 244 201
E 3 356 203
E 4 23 203
E 5 457 205
E 6 92 191
E 7 92 197
E 7 385 199
E 8 385 197
E 9 385 205
E 22 92 95
E 22 356 103
E 22 457 89
E 23 356 98
E 244 385 99
END

SECTION Terminals
Terminals 9
T 1
T 2
T 3
T 4
T 5
T 6
T 7
T 8
T 9
END

EOF
